Graphene
1.0
        2.4677240849         0.0000000000         0.0000000000
       -1.2338620424         2.1371117470         0.0000000000
        0.0000000000         0.0000000000         8.6850376129
    C
    4
Direct
     0.000000000         0.000000000         0.250000000
     0.000000000         0.000000000         0.750000000
     0.666666687         0.333333343         0.250000000
     0.333333343         0.666666687         0.750000000
     
